17	4
25	19	15	23	
0	0	0	0	0	3	2	3	4	
2	0	6	8	9	3	10	11	17	
4	0	2	0	0	3	5	17	17	
5	4	0	0	0	3	6	7	16	
6	4	0	0	0	3	9	12	17	
250	0	0	0	5	3	8	9	14	
225	0	7	4	0	2	17	17	
75	1	0	9	3	2	17	17	
25	6	9	0	5	3	17	17	17	
250	0	7	7	10	1	13	
100	6	9	0	0	3	17	17	17	
225	10	1	0	9	2	17	17	
8	5	0	7	0	3	15	17	17	
8	10	6	0	0	2	15	17	
8	0	7	8	10	1	17	
9	10	0	5	4	2	17	17	
0	0	0	0	0	0	
